(set-logic QF_LIA)
(declare-fun x1 () Int)
(declare-fun x6 () Int)
(declare-fun x7 () Int)
(declare-fun x8 () Int)
(declare-fun x9 () Int)
(declare-fun x10 () Int)
(declare-fun x11 () Int)
(declare-fun x12 () Int)
(declare-fun x13 () Int)
(declare-fun x14 () Int)
(declare-fun x15 () Int)
(assert (let ((.def_0 (* (- 1) x7))) (let ((.def_1 (+ x9 .def_0))) (let ((.def_2 (= .def_1 2))) (let ((.def_3 (not .def_2))) (let ((.def_4 (* (- 1) x8))) (let ((.def_5 (+ x9 .def_4))) (let ((.def_6 (= .def_5 2))) (let ((.def_7 (not .def_6))) (let ((.def_8 (+ x8 x7))) (let ((.def_9 (+ x10 .def_8))) (let ((.def_10 (= .def_9 10))) (let ((.def_11 (not .def_10))) (let ((.def_12 (+ x11 x12))) (let ((.def_13 (= .def_12 3))) (let ((.def_14 (not .def_13))) (let ((.def_15 (+ x9 .def_8))) (let ((.def_16 (+ x10 .def_15))) (let ((.def_17 (+ x12 .def_16))) (let ((.def_18 (+ x11 .def_17))) (let ((.def_19 (= .def_18 26))) (let ((.def_20 (not .def_19))) (let ((.def_21 (<= x10 0))) (let ((.def_22 (or .def_21 .def_20))) (let ((.def_23 (or .def_22 .def_14))) (let ((.def_24 (or .def_23 .def_11))) (let ((.def_25 (or .def_24 .def_7))) (let ((.def_26 (or .def_25 .def_3))) (let ((.def_27 (= x6 13))) (let ((.def_28 (not .def_27))) (let ((.def_29 (* (- 1) x6))) (let ((.def_30 (+ x13 .def_29))) (let ((.def_31 (+ x1 .def_30))) (let ((.def_32 (= .def_31 0))) (let ((.def_33 (not .def_32))) (let ((.def_34 (* (- 1) x13))) (let ((.def_35 (+ x14 .def_34))) (let ((.def_36 (= .def_35 (- 2)))) (let ((.def_37 (not .def_36))) (let ((.def_38 (* (- 1) x15))) (let ((.def_39 (+ x14 .def_38))) (let ((.def_40 (= .def_39 (- 5)))) (let ((.def_41 (not .def_40))) (let ((.def_42 (<= 3 x15))) (let ((.def_43 (or .def_42 .def_41))) (let ((.def_44 (or .def_43 .def_37))) (let ((.def_45 (or .def_44 .def_33))) (let ((.def_46 (or .def_45 .def_28))) (let ((.def_47 (= x1 5))) (let ((.def_48 (not .def_47))) (let ((.def_49 (or .def_48 .def_46))) (let ((.def_50 (<= 0 x1))) (let ((.def_51 (or .def_50 .def_48))) (let ((.def_52 (<= x1 0))) (let ((.def_53 (not .def_52))) (let ((.def_54 (or .def_53 .def_48))) (let ((.def_55 (and .def_54 .def_51 .def_49 .def_26))) .def_55)))))))))))))))))))))))))))))))))))))))))))))))))))))))))
(check-sat)
